LatticeConstant	1.000000	Ang
%block LatticeVectors
       20.0000000000         0.0000000000         0.0000000000
        0.0000000000        20.0000000000         0.0000000000
        0.0000000000         0.0000000000        20.0000000000
%endblock LatticeVectors
NumberOfAtoms	3
NumberOfSpecies	2
%block Chemical_Species_Label
	1	8	O
	2	1	H
%endblock Chemical_Species_Label
AtomicCoordinatesFormat	ScaledCartesian
%block AtomicCoordinatesAndAtomicSpecies
10.0000000000	0.0000000000	0.0000000000	1	1	O
11.0000000000	0.6000000000	0.0000000000	2	1	H
9.0000000000	0.0000000000	0.0000000000	2	2	H
%endblock AtomicCoordinatesAndAtomicSpecies
